c generated by sgen1
c Command: ./sgen1 -sat -n 20 -s 818 
p cnf 20 48
-1 -2 0
-1 -3 0
-1 -4 0
-1 -5 0
-2 -3 0
-2 -4 0
-2 -5 0
-3 -4 0
-3 -5 0
-4 -5 0
-6 -7 0
-6 -8 0
-6 -9 0
-6 -10 0
-7 -8 0
-7 -9 0
-7 -10 0
-8 -9 0
-8 -10 0
-9 -10 0
-11 -12 0
-11 -13 0
-11 -14 0
-11 -15 0
-12 -13 0
-12 -14 0
-12 -15 0
-13 -14 0
-13 -15 0
-14 -15 0
-16 -17 0
-16 -18 0
-16 -19 0
-16 -20 0
-17 -18 0
-17 -19 0
-17 -20 0
-18 -19 0
-18 -20 0
-19 -20 0
8 13 3 18 16 0
17 7 2 15 14 0
1 12 9 5 20 0
11 10 4 19 6 0
14 16 3 9 11 0
2 7 15 6 18 0
5 12 17 8 4 0
13 20 1 19 10 0
